 Run started: Wed, 20 Apr 2016 14:25:04 +0100
 Warning: parameters_read - missing parameters file, using defaults

 Atomic calculation performed for O: 1s2 2s2 2p4

 Converged in 60 iterations to an ae energy of -2027.926 eV

   | Pseudopotential Report - Date of generation 20-04-2016   |
   | Element: O Ionic charge:  6.00 Level of theory: LDA      |
   | Atomic Solver: Koelling-Harmon                           |
   |               Reference Electronic Structure             |
   |         Orbital         Occupation         Energy        |
   |            2s              2.000           -0.873        |
   |            2p              4.000           -0.338        |
   |                 Pseudopotential Definition               |
   |        Beta     l      e      Rc     scheme   norm       |
   |          1      0   -0.873   1.100     qc      0         |
   |          2      0    0.250   1.100     qc      0         |
   |          3      1   -0.338   1.100     qc      0         |
   |          4      1    0.250   1.100     qc      0         |
   |         loc     2    0.000   1.100     pn      0         |
   | Augmentation charge Rinner = 0.769                       |
   | Partial core correction Rc = 0.769                       |
   | "2|1.1|15|18|20|20:21(qc=7)"                             |
   |      Author: Chris J. Pickard, Cambridge University      |

 Atomic calculation performed for Mg: 1s2 2s2 2p6 3s2

[...]

   | Pseudopotential Report - Date of generation 20-04-2016   |
   | Element: Mg Ionic charge: 10.00 Level of theory: LDA     |
   | Atomic Solver: Koelling-Harmon                           |
   |               Reference Electronic Structure             |
   |         Orbital         Occupation         Energy        |
   |            2s              2.000           -2.914        |
   |            2p              6.000           -1.717        |
   |            3s              2.000           -0.176        |
   |                 Pseudopotential Definition               |
   |        Beta     l      e      Rc     scheme   norm       |
   |          1      0   -2.914   1.804     qc      0         |
   |          2      0   -0.176   1.804     qc      0         |
   |          3      0    0.250   1.804     qc      0         |
   |          4      1   -1.717   1.804     qc      0         |
   |          5      1    0.250   1.804     qc      0         |
   |          6      2    0.000   1.804     qc      0         |
   |          7      2    0.250   1.804     qc      0         |
   |         loc     3    0.000   1.804     pn      0         |
   | Augmentation charge Rinner = 1.261                       |
   | Partial core correction Rc = 1.261                       |
   | "3|1.8|7|8|9|20U:30:21:32"                               |
   |      Author: Chris J. Pickard, Cambridge University      |

 Atomic calculation performed for Ca: 1s2 2s2 2p6 3s2 3p6 4s2

[...]

 Run started: Wed, 20 Apr 2016 14:27:25 +0100
 Warning: parameters_read - missing parameters file, using defaults
 |      CCC   AA    SSS  TTTTT  EEEEE  PPPP        |
 |     C     A  A  S       T    E      P   P       |
 |     C     AAAA   SS     T    EEE    PPPP        |
 |     C     A  A     S    T    E      P           |
 |      CCC  A  A  SSS     T    EEEEE  P           |
 | Welcome to Academic Release CASTEP version 9.0  |
 | Ab Initio Total Energy Program                  |
 | Authors:                                        |
 | M. Segall, M. Probert, C. Pickard, P. Hasnip,   |
 | S. Clark, K. Refson, J. R. Yates, M. Payne      |
 | Contributors:                                   |
 | P. Lindan, P. Haynes, J. White, V. Milman,      |
 | N. Govind, M. Gibson, P. Tulip, V. Cocula,      |
 | B. Montanari, D. Quigley, M. Glover,            |
 | L. Bernasconi, A. Perlov, M. Plummer,           |
 | E. McNellis, J. Meyer, J. Gale, D. Jochym       |
 | J. Aarons, B. Walker, R. Gillen, D. Jones       |
 | T. Green, I. J. Bush, C. J. Armstrong,          |
 | E. J. Higgins, M. D. Hodgson                    |
 | Copyright (c) 2000 - 2015                       |
 |     Distributed under the terms of an           |
 |     Agreement between the United Kingdom        |
 |     Car-Parrinello (UKCP) Consortium,           |
 |     Daresbury Laboratory and Accelrys, Inc.     |
 | Please cite                                     |
 |     "First principles methods using CASTEP"     |
 |         Zeitschrift fuer Kristallographie       |
 |           220(5-6) pp. 567-570 (2005)           |
 | S. J. Clark, M. D. Segall, C. J. Pickard,       |
 | P. J. Hasnip, M. J. Probert, K. Refson,         |
 | M. C. Payne                                     |
 |       in all publications arising from          |
 |              your use of CASTEP                 |

<<<<<<< HEAD
 Run started: Wed, 20 Apr 2016 14:31:23 +0100
 Run started: Wed, 20 Apr 2016 14:31:22 +0100
>>>>>>> 69bcd84d4a6168dd1074f1626c779cc471f70653
 Warning: parameters_read - missing parameters file, using defaults

[...]

<<<<<<< HEAD
   | Pseudopotential Report - Date of generation 20-04-2016   |
   | Element: O Ionic charge:  6.00 Level of theory: LDA      |
   | Atomic Solver: Koelling-Harmon                           |
   |               Reference Electronic Structure             |
   |         Orbital         Occupation         Energy        |
   |            2s              2.000           -0.873        |
   |            2p              4.000           -0.338        |
   |                 Pseudopotential Definition               |
   |        Beta     l      e      Rc     scheme   norm       |
   |          1      0   -0.873   1.100     qc      0         |
   |          2      0    0.250   1.100     qc      0         |
   |          3      1   -0.338   1.100     qc      0         |
   |          4      1    0.250   1.100     qc      0         |
   |         loc     2    0.000   1.100     pn      0         |
   | Augmentation charge Rinner = 0.769                       |
   | Partial core correction Rc = 0.769                       |
   | "2|1.1|15|18|20|20:21(qc=7)"                             |
   |      Author: Chris J. Pickard, Cambridge University      |

[...]

>>>>>>> 69bcd84d4a6168dd1074f1626c779cc471f70653
 |      CCC   AA    SSS  TTTTT  EEEEE  PPPP        |
 |     C     A  A  S       T    E      P   P       |
 |     C     AAAA   SS     T    EEE    PPPP        |
 |     C     A  A     S    T    E      P           |
 |      CCC  A  A  SSS     T    EEEEE  P           |
 | Welcome to Academic Release CASTEP version 9.0  |
 | Ab Initio Total Energy Program                  |
 | Authors:                                        |
 | M. Segall, M. Probert, C. Pickard, P. Hasnip,   |
 | S. Clark, K. Refson, J. R. Yates, M. Payne      |
 | Contributors:                                   |
 | P. Lindan, P. Haynes, J. White, V. Milman,      |
 | N. Govind, M. Gibson, P. Tulip, V. Cocula,      |
 | B. Montanari, D. Quigley, M. Glover,            |
 | L. Bernasconi, A. Perlov, M. Plummer,           |
 | E. McNellis, J. Meyer, J. Gale, D. Jochym       |
 | J. Aarons, B. Walker, R. Gillen, D. Jones       |
 | T. Green, I. J. Bush, C. J. Armstrong,          |
 | E. J. Higgins, M. D. Hodgson                    |
 | Copyright (c) 2000 - 2015                       |
 |     Distributed under the terms of an           |
 |     Agreement between the United Kingdom        |
 |     Car-Parrinello (UKCP) Consortium,           |
 |     Daresbury Laboratory and Accelrys, Inc.     |
 | Please cite                                     |
 |     "First principles methods using CASTEP"     |
 |         Zeitschrift fuer Kristallographie       |
 |           220(5-6) pp. 567-570 (2005)           |
 | S. J. Clark, M. D. Segall, C. J. Pickard,       |
 | P. J. Hasnip, M. J. Probert, K. Refson,         |
 | M. C. Payne                                     |
 |       in all publications arising from          |
 |              your use of CASTEP                 |

<<<<<<< HEAD
 Run started: Wed, 20 Apr 2016 14:33:02 +0100
 Run started: Wed, 20 Apr 2016 14:32:10 +0100
 Warning: parameters_read - missing parameters file, using defaults

[...]

<<<<<<< HEAD
>>>>>>> 69bcd84d4a6168dd1074f1626c779cc471f70653
>>>>>>> 49ef0b40004d9519d68ec3ece56c5c17391cb7cb
 |      CCC   AA    SSS  TTTTT  EEEEE  PPPP        |
 |     C     A  A  S       T    E      P   P       |
 |     C     AAAA   SS     T    EEE    PPPP        |
 |     C     A  A     S    T    E      P           |
 |      CCC  A  A  SSS     T    EEEEE  P           |
 | Welcome to Academic Release CASTEP version 9.0  |
 | Ab Initio Total Energy Program                  |
 | Authors:                                        |
 | M. Segall, M. Probert, C. Pickard, P. Hasnip,   |
 | S. Clark, K. Refson, J. R. Yates, M. Payne      |
 | Contributors:                                   |
 | P. Lindan, P. Haynes, J. White, V. Milman,      |
 | N. Govind, M. Gibson, P. Tulip, V. Cocula,      |
 | B. Montanari, D. Quigley, M. Glover,            |
 | L. Bernasconi, A. Perlov, M. Plummer,           |
 | E. McNellis, J. Meyer, J. Gale, D. Jochym       |
 | J. Aarons, B. Walker, R. Gillen, D. Jones       |
 | T. Green, I. J. Bush, C. J. Armstrong,          |
 | E. J. Higgins, M. D. Hodgson                    |
 | Copyright (c) 2000 - 2015                       |
 |     Distributed under the terms of an           |
 |     Agreement between the United Kingdom        |
 |     Car-Parrinello (UKCP) Consortium,           |
 |     Daresbury Laboratory and Accelrys, Inc.     |
 | Please cite                                     |
 |     "First principles methods using CASTEP"     |
 |         Zeitschrift fuer Kristallographie       |
 |           220(5-6) pp. 567-570 (2005)           |
 | S. J. Clark, M. D. Segall, C. J. Pickard,       |
 | P. J. Hasnip, M. J. Probert, K. Refson,         |
 | M. C. Payne                                     |
 |       in all publications arising from          |
 |              your use of CASTEP                 |

<<<<<<< HEAD
 Run started: Wed, 20 Apr 2016 14:49:11 +0100
 Run started: Wed, 20 Apr 2016 14:47:17 +0100
>>>>>>> 49ef0b40004d9519d68ec3ece56c5c17391cb7cb
 Warning: parameters_read - missing parameters file, using defaults

[...]

<<<<<<< HEAD
 |      CCC   AA    SSS  TTTTT  EEEEE  PPPP        |
 |     C     A  A  S       T    E      P   P       |
 |     C     AAAA   SS     T    EEE    PPPP        |
 |     C     A  A     S    T    E      P           |
 |      CCC  A  A  SSS     T    EEEEE  P           |
 | Welcome to Academic Release CASTEP version 9.0  |
 | Ab Initio Total Energy Program                  |
 | Authors:                                        |
 | M. Segall, M. Probert, C. Pickard, P. Hasnip,   |
 | S. Clark, K. Refson, J. R. Yates, M. Payne      |
 | Contributors:                                   |
 | P. Lindan, P. Haynes, J. White, V. Milman,      |
 | N. Govind, M. Gibson, P. Tulip, V. Cocula,      |
 | B. Montanari, D. Quigley, M. Glover,            |
 | L. Bernasconi, A. Perlov, M. Plummer,           |
 | E. McNellis, J. Meyer, J. Gale, D. Jochym       |
 | J. Aarons, B. Walker, R. Gillen, D. Jones       |
[...]

 Run started: Wed, 20 Apr 2016 15:21:09 +0100
 Warning: parameters_read - missing parameters file, using defaults

 Atomic calculation performed for O: 1s2 2s2 2p4

[...]

   | Pseudopotential Report - Date of generation 20-04-2016   |
   | Element: O Ionic charge:  6.00 Level of theory: LDA      |
   | Atomic Solver: Koelling-Harmon                           |
   |               Reference Electronic Structure             |
   |         Orbital         Occupation         Energy        |
   |            2s              2.000           -0.873        |
   |            2p              4.000           -0.338        |
   |                 Pseudopotential Definition               |
   |        Beta     l      e      Rc     scheme   norm       |
   |          1      0   -0.873   1.100     qc      0         |
   |          2      0    0.250   1.100     qc      0         |
   |          3      1   -0.338   1.100     qc      0         |
   |          4      1    0.250   1.100     qc      0         |
   |         loc     2    0.000   1.100     pn      0         |
   | Augmentation charge Rinner = 0.769                       |
   | Partial core correction Rc = 0.769                       |
   | "2|1.1|15|18|20|20:21(qc=7)"                             |
   |      Author: Chris J. Pickard, Cambridge University      |

 Atomic calculation performed for Mg: 1s2 2s2 2p6 3s2

[...]

<<<<<<< HEAD
>>>>>>> 90b46f01f6119975364d93cd28f36f97f1cfb2ff
   | Pseudopotential Report - Date of generation 20-04-2016   |
   | Element: Mg Ionic charge: 10.00 Level of theory: LDA     |
   | Atomic Solver: Koelling-Harmon                           |
   |               Reference Electronic Structure             |
   |         Orbital         Occupation         Energy        |
   |            2s              2.000           -2.914        |
   |            2p              6.000           -1.717        |
   |            3s              2.000           -0.176        |
   |                 Pseudopotential Definition               |
   |        Beta     l      e      Rc     scheme   norm       |
   |          1      0   -2.914   1.804     qc      0         |
   |          2      0   -0.176   1.804     qc      0         |
   |          3      0    0.250   1.804     qc      0         |
   |          4      1   -1.717   1.804     qc      0         |
   |          5      1    0.250   1.804     qc      0         |
   |          6      2    0.000   1.804     qc      0         |
   |          7      2    0.250   1.804     qc      0         |
   |         loc     3    0.000   1.804     pn      0         |
   | Augmentation charge Rinner = 1.261                       |
   | Partial core correction Rc = 1.261                       |
   | "3|1.8|7|8|9|20U:30:21:32"                               |
   |      Author: Chris J. Pickard, Cambridge University      |

 Atomic calculation performed for Ca: 1s2 2s2 2p6 3s2 3p6 4s2

 Converged in 44 iterations to an ae energy of -18468.059 eV

   | Pseudopotential Report - Date of generation 20-04-2016   |
   | Element: Ca Ionic charge: 10.00 Level of theory: LDA     |
   | Atomic Solver: Koelling-Harmon                           |
   |               Reference Electronic Structure             |
   |         Orbital         Occupation         Energy        |
   |            3s              2.000           -1.721        |
   |            3p              6.000           -1.028        |
   |            4s              2.000           -0.142        |
   |                 Pseudopotential Definition               |
   |        Beta     l      e      Rc     scheme   norm       |
   |          1      0   -1.721   2.005     qc      0         |
   |          2      0   -0.142   2.005     qc      0         |
   |          3      0    0.250   2.005     qc      0         |
   |          4      1   -1.028   2.005     qc      0         |
   |          5      1    0.250   2.005     qc      0         |
   |          6      2    0.000   2.005     qc      0         |
   |          7      2    0.250   2.005     qc      0         |
   |         loc     3    0.000   2.005     pn      0         |
   | Augmentation charge Rinner = 1.401                       |
   | Partial core correction Rc = 1.401                       |
   | "3|2.0|7|8|9|30U:40:31:32"                               |
   |      Author: Chris J. Pickard, Cambridge University      |

 Pseudo atomic calculation performed for O 2s2 2p4

 Converged in 24 iterations to a total energy of -431.6155 eV

 Pseudo atomic calculation performed for Mg 2s2 2p6 3s2

[...]

 Calculation not parallelised.
 Warning: parameters_output - missing parameters file, using defaults

 ************************************ Title ************************************

 ***************************** General Parameters ******************************

 output verbosity                               : normal  (1)
 write checkpoint data to                       : ../MgOtest.check
 type of calculation                            : single point energy
 stress calculation                             : off
 density difference calculation                 : off
 electron localisation func (ELF) calculation   : off
 Hirshfeld analysis                             : off
 unlimited duration calculation
 timing information                             : on
 write final potential to formatted file        : off
 write final density to formatted file          : off
 write BibTeX reference list                    : on
 write OTFG pseudopotential files               : on
 checkpoint writing                             : both castep_bin and check files
<<<<<<< HEAD
 random number generator seed                   : randomised (152109616)
 random number generator seed                   : randomised (144911364)
>>>>>>> 90b46f01f6119975364d93cd28f36f97f1cfb2ff

 *********************** Exchange-Correlation Parameters ***********************

 using functional                               : Local Density Approximation
 DFT+D: Semi-empirical dispersion correction    : off

 ************************* Pseudopotential Parameters **************************

 pseudopotential representation                 : reciprocal space
 <beta|phi> representation                      : reciprocal space
 spin-orbit coupling                            : off

 **************************** Basis Set Parameters *****************************

 basis set accuracy                             : FINE
 finite basis set correction                    : none

 **************************** Electronic Parameters ****************************

 number of  electrons                           :  92.00
 net charge of system                           :  0.000
 treating system as non-spin-polarized
 number of bands                                :         55

 ********************* Electronic Minimization Parameters **********************

 Method: Treating system as metallic with density mixing treatment of electrons,
         and number of  SD  steps               :          1
         and number of  CG  steps               :          4

 total energy / atom convergence tol.           : 0.1000E-04   eV
 eigen-energy convergence tolerance             : 0.1000E-05   eV
 max force / atom convergence tol.              : ignored
 periodic dipole correction                     : NONE

 ************************** Density Mixing Parameters **************************

 density-mixing scheme                          : Broyden
 max. length of mixing history                  :         20

 *********************** Population Analysis Parameters ************************

 Population analysis with cutoff                :  3.000       A

                                      Unit Cell
        Real Lattice(A)                      Reciprocal Lattice(1/A)
   4.2000000   0.0000000   0.0000000        1.4959965   0.0000000   0.0000000
   0.0000000   4.2000000   0.0000000        0.0000000   1.4959965   0.0000000
   0.0000000   0.0000000   4.2000000        0.0000000   0.0000000   1.4959965

                       Lattice parameters(A)       Cell Angles
                    a =    4.200000          alpha =   90.000000
                    b =    4.200000          beta  =   90.000000
                    c =    4.200000          gamma =   90.000000

                       Current cell volume =   74.088000       A**3

                                     Cell Contents
                         Total number of ions in cell =   10
                      Total number of species in cell =    3
                        Max number of any one species =    4

            x  Element    Atom        Fractional coordinates of atoms  x
            x            Number           u          v          w      x
            x  O            1         0.000000   0.250000   0.250000   x
            x  O            2         0.500000   0.250000   0.250000   x
            x  Mg           1         0.000000   0.000000   0.000000   x
            x  Mg           2         0.000000   0.500000   0.000000   x
            x  Mg           3         0.000000   0.500000   0.500000   x
            x  Mg           4         0.000000   0.000000   0.500000   x
            x  Ca           1         0.500000   0.000000   0.000000   x
            x  Ca           2         0.500000   0.500000   0.000000   x
            x  Ca           3         0.500000   0.000000   0.500000   x
            x  Ca           4         0.500000   0.500000   0.500000   x

                         No user defined ionic velocities

                                   Details of Species

                               Mass of species in AMU
                                    O   15.9994000
                                    Mg   24.3050000
                                    Ca   40.0780000

                          Electric Quadrupole Moment (Barn)
                                    O   -0.0255800 Isotope 17
                                    Mg    0.1994000 Isotope 25
                                    Ca   -0.0408000 Isotope 43

                          Files used for pseudopotentials:
                                    O 2|1.1|15|18|20|20:21(qc=7)
                                    Mg 3|1.8|7|8|9|20U:30:21:32
                                    Ca 3|2.0|7|8|9|30U:40:31:32

                              k-Points For BZ Sampling
                       MP grid size for SCF calculation is  3  3  3
                            with an offset of   0.000  0.000  0.000
                       Number of kpoints used =             6

                               Symmetry and Constraints

                      Maximum deviation from symmetry = 0.940008E-15     ANG

                      Number of symmetry operations   =          16
                      Number of ionic constraints     =           3
                      Point group of crystal =    15: D4h, 4/mmm, 4/m 2/m 2/m
                      Space group of crystal =   123: P4/mmm, -P 4 2

             Set iprint > 1 for details on symmetry rotations/translations

                         Centre of mass is constrained
             Set iprint > 1 for details of linear ionic constraints

                         Number of cell constraints= 5
                         Cell constraints are:  1 1 1 0 0 0

                         External pressure/stress (GPa)
                          0.00000   0.00000   0.00000
                                    0.00000   0.00000
                                              0.00000

Final energy, E             =  -11572.72105810     eV
Final free energy (E-TS)    =  -11572.74789292     eV
(energies not corrected for finite basis set)

NB est. 0K energy (E-0.5TS)      =  -11572.73447551     eV

Writing analysis data to ../MgOtest.castep_bin

Writing model to ../MgOtest.check

 ***************** Symmetrised Forces *****************
 *            Cartesian components (eV/A)             *
 *                   x            y            z      *
 * O         1      0.00000      0.00000      0.00000 *
 * O         2      0.00000      0.00000      0.00000 *
 * Mg        1      0.00000     -9.93571     -9.93571 *
 * Mg        2      0.00000      9.93571     -9.93571 *
 * Mg        3      0.00000      9.93571      9.93571 *
 * Mg        4      0.00000     -9.93571      9.93571 *
 * Ca        1      0.00000    -17.81295    -17.81295 *
 * Ca        2      0.00000     17.81295    -17.81295 *
 * Ca        3      0.00000    -17.81295     17.81295 *
 * Ca        4      0.00000     17.81295     17.81295 *

 Pseudo atomic calculation performed for O 2s2 2p4

[...]

 Pseudo atomic calculation performed for Ca 3s2 3p6 4s2

 Converged in 19 iterations to a total energy of -1001.6194 eV

Charge spilling parameter for spin component 1 = 0.55%

     Atomic Populations (Mulliken)
Species   Ion     s      p      d      f     Total  Charge (e)
  O        1     1.88   5.43   0.00   0.00   7.31    -1.31
  O        2     1.65   4.46   0.00   0.00   6.12    -0.12
  Mg       1     2.15   7.96   0.00   0.00  10.11    -0.11
  Mg       2     2.15   7.96   0.00   0.00  10.11    -0.11
  Mg       3     2.15   7.96   0.00   0.00  10.11    -0.11
  Mg       4     2.15   7.96   0.00   0.00  10.11    -0.11
  Ca       1     1.49   5.71   2.33   0.00   9.53     0.47
  Ca       2     1.49   5.71   2.33   0.00   9.53     0.47
  Ca       3     1.49   5.71   2.33   0.00   9.53     0.47
  Ca       4     1.49   5.71   2.33   0.00   9.53     0.47

            Bond              Population      Length (A)
          O 2 -- Ca 4             -0.65        1.48492
          O 2 -- Ca 3             -0.65        1.48492
          O 2 -- Ca 2             -0.65        1.48492
          O 2 -- Ca 1             -0.65        1.48492
          O 1 -- Mg 4             -0.27        1.48492
          O 1 -- Mg 3             -0.27        1.48492
          O 1 -- Mg 2             -0.27        1.48492
          O 1 -- Mg 1             -0.27        1.48492
         Ca 3 -- Ca 4            -12.12        2.10000
         Ca 2 -- Ca 4            -12.12        2.10000
         Ca 1 -- Ca 3            -12.12        2.10000
         Ca 1 -- Ca 2            -12.12        2.10000
         Mg 4 -- Ca 3             -6.80        2.10000
         Mg 3 -- Ca 4             -6.80        2.10000
         Mg 3 -- Mg 4             -1.99        2.10000
         Mg 2 -- Ca 2             -6.80        2.10000
         Mg 2 -- Mg 3             -1.99        2.10000
         Mg 1 -- Ca 1             -6.80        2.10000
         Mg 1 -- Mg 4             -1.99        2.10000
         Mg 1 -- Mg 2             -1.99        2.10000
          O 1 -- O 2              -0.36        2.10000
          O 2 -- Mg 3              0.29        2.57196
          O 1 -- Ca 4              0.02        2.57196
          O 2 -- Mg 4              0.29        2.57196
          O 2 -- Mg 2              0.29        2.57196
          O 2 -- Mg 1              0.29        2.57196
          O 1 -- Ca 3              0.02        2.57196
          O 1 -- Ca 2              0.02        2.57196
          O 1 -- Ca 1              0.02        2.57196
         Ca 2 -- Ca 3              3.96        2.96985
         Ca 1 -- Ca 4              3.96        2.96985
         Mg 4 -- Ca 4              0.02        2.96985
         Mg 4 -- Ca 1              0.02        2.96985
         Mg 3 -- Ca 3              0.02        2.96985
         Mg 3 -- Ca 2              0.02        2.96985
         Mg 2 -- Ca 4              0.02        2.96985
         Mg 2 -- Ca 1              0.02        2.96985
         Mg 2 -- Mg 4              1.40        2.96985
         Mg 1 -- Ca 3              0.02        2.96985
         Mg 1 -- Ca 2              0.02        2.96985
         Mg 1 -- Mg 3              1.40        2.96985

Writing analysis data to ../MgOtest.castep_bin

Writing model to ../MgOtest.check

 A BibTeX formatted list of references used in this run has been written to
 ../MgOtest.bib

Initialisation time =     11.65 s
Calculation time    =     24.24 s
Finalisation time   =      1.21 s
Total time          =     37.10 s
Initial  -9.54526927E+003  0.00000000E+000                        11.79  <-- SCF
      1  -1.13841532E+004  1.50163479E+001   1.83888396E+002      13.90  <-- SCF
      2  -1.15838125E+004  1.47188682E+001   1.99659304E+001      15.54  <-- SCF
      3  -1.15875976E+004  1.47542854E+001   3.78502522E-001      17.29  <-- SCF
      4  -1.15783446E+004  1.58867871E+001  -9.25292745E-001      19.14  <-- SCF
      5  -1.15731658E+004  1.56443365E+001  -5.17886878E-001      21.10  <-- SCF
      6  -1.15728153E+004  1.56438717E+001  -3.50491800E-002      23.01  <-- SCF
>>>>>>> 49ef0b40004d9519d68ec3ece56c5c17391cb7cb
>>>>>>> 90b46f01f6119975364d93cd28f36f97f1cfb2ff